835739
0,47,36,73,69,31,12,62,92,30,59,19,20,95,29,76,40,5,74,68,17,55,9,61,48,54,43,90,52,7,88,84,2,4,63,26,1,41,96,34,66,60,57,81,15,14,82,87,49,35,71,67,98,79,37,75,86,44,3,65,6,80,85,13,38,91,83,72,21,42,23,51,64,53,97,22,10,27,45,33,70,89,58,18,11,16,25,93,39,28,78,50,77,24,94,46,56,32,8,0